15918.0	36.0
14226.0	26.0
17750.0	39.0
16425.0	37.0
14965.0	28.0
15579.0	35.0
15296.0	31.0
10767.0	13.0
10740.0	12.0
10876.0	15.0
10935.0	16.0
10990.0	17.0
11020.0	19.0
11779.0	24.0
11117.0	21.0
11180.0	22.0
11370.0	23.0
